unsat
(error "line 5848 column 17: model is not available")
(error "line 5849 column 17: model is not available")
(error "line 5850 column 18: model is not available")
(error "line 5851 column 19: model is not available")
(error "line 5852 column 19: model is not available")
(error "line 5853 column 19: model is not available")
(error "line 5854 column 19: model is not available")
(error "line 5855 column 19: model is not available")
(error "line 5856 column 19: model is not available")
(error "line 5857 column 19: model is not available")
(error "line 5858 column 19: model is not available")
(error "line 5859 column 19: model is not available")
(error "line 5860 column 19: model is not available")
(error "line 5861 column 18: model is not available")
(error "line 5862 column 19: model is not available")
(error "line 5863 column 19: model is not available")
(error "line 5864 column 19: model is not available")
(error "line 5865 column 19: model is not available")
(error "line 5866 column 19: model is not available")
(error "line 5867 column 19: model is not available")
(error "line 5868 column 19: model is not available")
(error "line 5869 column 19: model is not available")
(error "line 5870 column 19: model is not available")
(error "line 5871 column 19: model is not available")
(error "line 5872 column 18: model is not available")
(error "line 5873 column 19: model is not available")
(error "line 5874 column 19: model is not available")
(error "line 5875 column 19: model is not available")
(error "line 5876 column 19: model is not available")
(error "line 5877 column 19: model is not available")
(error "line 5878 column 19: model is not available")
(error "line 5879 column 19: model is not available")
(error "line 5880 column 19: model is not available")
(error "line 5881 column 19: model is not available")
(error "line 5882 column 19: model is not available")
(error "line 5883 column 18: model is not available")
(error "line 5884 column 19: model is not available")
(error "line 5885 column 19: model is not available")
(error "line 5886 column 19: model is not available")
(error "line 5887 column 19: model is not available")
(error "line 5888 column 19: model is not available")
(error "line 5889 column 19: model is not available")
(error "line 5890 column 19: model is not available")
(error "line 5891 column 19: model is not available")
(error "line 5892 column 19: model is not available")
(error "line 5893 column 19: model is not available")
(error "line 5894 column 18: model is not available")
(error "line 5895 column 19: model is not available")
(error "line 5896 column 19: model is not available")
(error "line 5897 column 19: model is not available")
(error "line 5898 column 19: model is not available")
(error "line 5899 column 19: model is not available")
(error "line 5900 column 19: model is not available")
(error "line 5901 column 19: model is not available")
(error "line 5902 column 19: model is not available")
(error "line 5903 column 19: model is not available")
(error "line 5904 column 19: model is not available")
(error "line 5905 column 18: model is not available")
(error "line 5906 column 19: model is not available")
(error "line 5907 column 19: model is not available")
(error "line 5908 column 19: model is not available")
(error "line 5909 column 19: model is not available")
(error "line 5910 column 19: model is not available")
(error "line 5911 column 19: model is not available")
(error "line 5912 column 19: model is not available")
(error "line 5913 column 19: model is not available")
(error "line 5914 column 19: model is not available")
(error "line 5915 column 19: model is not available")
(error "line 5916 column 18: model is not available")
(error "line 5917 column 19: model is not available")
(error "line 5918 column 19: model is not available")
(error "line 5919 column 19: model is not available")
(error "line 5920 column 19: model is not available")
(error "line 5921 column 19: model is not available")
(error "line 5922 column 19: model is not available")
(error "line 5923 column 19: model is not available")
(error "line 5924 column 19: model is not available")
(error "line 5925 column 19: model is not available")
(error "line 5926 column 19: model is not available")
(error "line 5927 column 18: model is not available")
(error "line 5928 column 19: model is not available")
(error "line 5929 column 19: model is not available")
(error "line 5930 column 19: model is not available")
(error "line 5931 column 19: model is not available")
(error "line 5932 column 19: model is not available")
(error "line 5933 column 19: model is not available")
(error "line 5934 column 19: model is not available")
(error "line 5935 column 19: model is not available")
(error "line 5936 column 19: model is not available")
(error "line 5937 column 19: model is not available")
(error "line 5938 column 18: model is not available")
(error "line 5939 column 19: model is not available")
(error "line 5940 column 19: model is not available")
(error "line 5941 column 19: model is not available")
(error "line 5942 column 18: model is not available")
(error "line 5943 column 17: model is not available")
(error "line 5944 column 18: model is not available")
(error "line 5945 column 18: model is not available")
(error "line 5946 column 18: model is not available")
(error "line 5947 column 18: model is not available")
(error "line 5948 column 18: model is not available")
(error "line 5949 column 18: model is not available")
(error "line 5950 column 18: model is not available")
(error "line 5951 column 18: model is not available")
(error "line 5952 column 18: model is not available")
(error "line 5953 column 18: model is not available")
(error "line 5954 column 17: model is not available")
(error "line 5955 column 18: model is not available")
(error "line 5956 column 18: model is not available")
(error "line 5957 column 18: model is not available")
(error "line 5958 column 18: model is not available")
(error "line 5959 column 18: model is not available")
(error "line 5960 column 18: model is not available")
(error "line 5961 column 18: model is not available")
(error "line 5962 column 18: model is not available")
(error "line 5963 column 18: model is not available")
(error "line 5964 column 18: model is not available")
(error "line 5965 column 17: model is not available")
(error "line 5966 column 18: model is not available")
(error "line 5967 column 18: model is not available")
(error "line 5968 column 18: model is not available")
(error "line 5969 column 18: model is not available")
(error "line 5970 column 18: model is not available")
(error "line 5971 column 18: model is not available")
(error "line 5972 column 18: model is not available")
(error "line 5973 column 18: model is not available")
(error "line 5974 column 18: model is not available")
(error "line 5975 column 18: model is not available")
(error "line 5976 column 17: model is not available")
(error "line 5977 column 18: model is not available")
(error "line 5978 column 18: model is not available")
(error "line 5979 column 18: model is not available")
(error "line 5980 column 18: model is not available")
(error "line 5981 column 18: model is not available")
(error "line 5982 column 18: model is not available")
(error "line 5983 column 18: model is not available")
(error "line 5984 column 18: model is not available")
(error "line 5985 column 18: model is not available")
(error "line 5986 column 18: model is not available")
(error "line 5987 column 17: model is not available")
(error "line 5988 column 18: model is not available")
(error "line 5989 column 18: model is not available")
(error "line 5990 column 18: model is not available")
(error "line 5991 column 18: model is not available")
(error "line 5992 column 18: model is not available")
(error "line 5993 column 18: model is not available")
(error "line 5994 column 18: model is not available")
(error "line 5995 column 18: model is not available")
(error "line 5996 column 18: model is not available")
(error "line 5997 column 18: model is not available")
(error "line 5998 column 17: model is not available")
(error "line 5999 column 18: model is not available")
(error "line 6000 column 18: model is not available")
(error "line 6001 column 18: model is not available")
(error "line 6002 column 18: model is not available")
(error "line 6003 column 18: model is not available")
(error "line 6004 column 18: model is not available")
(error "line 6005 column 18: model is not available")
(error "line 6006 column 18: model is not available")
(error "line 6007 column 18: model is not available")
(error "line 6008 column 18: model is not available")
(error "line 6009 column 17: model is not available")
(error "line 6010 column 18: model is not available")
(error "line 6011 column 18: model is not available")
(error "line 6012 column 18: model is not available")
(error "line 6013 column 18: model is not available")
(error "line 6014 column 18: model is not available")
(error "line 6015 column 18: model is not available")
(error "line 6016 column 18: model is not available")
(error "line 6017 column 18: model is not available")
(error "line 6018 column 18: model is not available")
(error "line 6019 column 18: model is not available")
(error "line 6020 column 17: model is not available")
(error "line 6021 column 18: model is not available")
(error "line 6022 column 18: model is not available")
(error "line 6023 column 18: model is not available")
(error "line 6024 column 18: model is not available")
(error "line 6025 column 18: model is not available")
(error "line 6026 column 18: model is not available")
(error "line 6027 column 18: model is not available")
(error "line 6028 column 18: model is not available")
(error "line 6029 column 18: model is not available")
(error "line 6030 column 18: model is not available")
(error "line 6031 column 38: model is not available")
(error "line 6032 column 45: model is not available")
(error "line 6033 column 38: model is not available")
(error "line 6034 column 45: model is not available")
(error "line 6035 column 46: model is not available")
(error "line 6036 column 53: model is not available")
(error "line 6037 column 40: model is not available")
(error "line 6038 column 47: model is not available")
(error "line 6039 column 38: model is not available")
(error "line 6040 column 45: model is not available")
(error "line 6041 column 38: model is not available")
(error "line 6042 column 45: model is not available")
(error "line 6043 column 41: model is not available")
(error "line 6044 column 48: model is not available")
(error "line 6045 column 41: model is not available")
(error "line 6046 column 48: model is not available")
(error "line 6047 column 37: model is not available")
(error "line 6048 column 44: model is not available")
(error "line 6049 column 42: model is not available")
(error "line 6050 column 42: model is not available")
(error "line 6051 column 38: model is not available")
(error "line 6052 column 38: model is not available")
(error "line 6053 column 38: model is not available")
(error "line 6054 column 41: model is not available")
(error "line 6055 column 48: model is not available")
(error "line 6056 column 41: model is not available")
(error "line 6057 column 48: model is not available")
(error "line 6058 column 41: model is not available")
(error "line 6059 column 48: model is not available")
(error "line 6060 column 22: model is not available")
(error "line 6061 column 29: model is not available")
(error "line 6062 column 23: model is not available")
(error "line 6063 column 30: model is not available")
(error "line 6064 column 23: model is not available")
(error "line 6065 column 30: model is not available")
(error "line 6066 column 23: model is not available")
(error "line 6067 column 30: model is not available")
(error "line 6068 column 23: model is not available")
(error "line 6069 column 30: model is not available")
(error "line 6070 column 23: model is not available")
(error "line 6071 column 30: model is not available")
(error "line 6072 column 23: model is not available")
(error "line 6073 column 30: model is not available")
(error "line 6074 column 23: model is not available")
(error "line 6075 column 30: model is not available")
(error "line 6076 column 23: model is not available")
(error "line 6077 column 30: model is not available")
(error "line 6078 column 23: model is not available")
(error "line 6079 column 30: model is not available")
(error "line 6080 column 22: model is not available")
(error "line 6081 column 29: model is not available")
(error "line 6082 column 22: model is not available")
(error "line 6083 column 29: model is not available")
(error "line 6084 column 22: model is not available")
(error "line 6085 column 29: model is not available")
(error "line 6086 column 22: model is not available")
(error "line 6087 column 29: model is not available")
(error "line 6088 column 22: model is not available")
(error "line 6089 column 29: model is not available")
(error "line 6090 column 22: model is not available")
(error "line 6091 column 29: model is not available")
(error "line 6092 column 22: model is not available")
(error "line 6093 column 29: model is not available")
(error "line 6094 column 22: model is not available")
(error "line 6095 column 29: model is not available")
(error "line 6096 column 22: model is not available")
(error "line 6097 column 29: model is not available")
(error "line 6098 column 23: model is not available")
(error "line 6099 column 30: model is not available")
(error "line 6100 column 23: model is not available")
(error "line 6101 column 30: model is not available")
(error "line 6102 column 23: model is not available")
(error "line 6103 column 30: model is not available")
(error "line 6104 column 23: model is not available")
(error "line 6105 column 30: model is not available")
(error "line 6106 column 23: model is not available")
(error "line 6107 column 30: model is not available")
(error "line 6108 column 23: model is not available")
(error "line 6109 column 30: model is not available")
(error "line 6110 column 23: model is not available")
(error "line 6111 column 30: model is not available")
(error "line 6112 column 23: model is not available")
(error "line 6113 column 30: model is not available")
(error "line 6114 column 23: model is not available")
(error "line 6115 column 30: model is not available")
(error "line 6116 column 22: model is not available")
(error "line 6117 column 29: model is not available")
(error "line 6118 column 22: model is not available")
(error "line 6119 column 29: model is not available")
(error "line 6120 column 22: model is not available")
(error "line 6121 column 29: model is not available")
(error "line 6122 column 22: model is not available")
(error "line 6123 column 29: model is not available")
(error "line 6124 column 22: model is not available")
(error "line 6125 column 29: model is not available")
(error "line 6126 column 22: model is not available")
(error "line 6127 column 29: model is not available")
(error "line 6128 column 22: model is not available")
(error "line 6129 column 29: model is not available")
(error "line 6130 column 22: model is not available")
(error "line 6131 column 29: model is not available")
(error "line 6132 column 38: model is not available")
(error "line 6133 column 39: model is not available")
(error "line 6134 column 39: model is not available")
(error "line 6135 column 39: model is not available")
(error "line 6136 column 39: model is not available")
(error "line 6137 column 39: model is not available")
(error "line 6138 column 39: model is not available")
(error "line 6139 column 39: model is not available")
(error "line 6140 column 39: model is not available")
(error "line 6141 column 39: model is not available")
(error "line 6142 column 39: model is not available")
(error "line 6143 column 38: model is not available")
(error "line 6144 column 39: model is not available")
(error "line 6145 column 39: model is not available")
(error "line 6146 column 39: model is not available")
(error "line 6147 column 39: model is not available")
(error "line 6148 column 39: model is not available")
(error "line 6149 column 39: model is not available")
(error "line 6150 column 39: model is not available")
(error "line 6151 column 39: model is not available")
(error "line 6152 column 39: model is not available")
(error "line 6153 column 39: model is not available")
(error "line 6154 column 38: model is not available")
(error "line 6155 column 39: model is not available")
(error "line 6156 column 39: model is not available")
(error "line 6157 column 39: model is not available")
(error "line 6158 column 38: model is not available")
(error "line 6159 column 38: model is not available")
(error "line 6160 column 38: model is not available")
(error "line 6161 column 38: model is not available")
(error "line 6162 column 38: model is not available")
(error "line 6163 column 38: model is not available")
(error "line 6164 column 36: model is not available")
(error "line 6165 column 36: model is not available")
(error "line 6166 column 29: model is not available")
(error "line 6167 column 31: model is not available")
(error "line 6168 column 38: model is not available")
(error "line 6169 column 31: model is not available")
(error "line 6170 column 38: model is not available")
(error "line 6171 column 51: model is not available")
(error "line 6172 column 51: model is not available")
(error "line 6173 column 53: model is not available")
(error "line 6174 column 53: model is not available")
(error "line 6175 column 53: model is not available")
(error "line 6176 column 53: model is not available")
(error "line 6177 column 53: model is not available")
(error "line 6178 column 53: model is not available")
(error "line 6179 column 53: model is not available")
(error "line 6180 column 53: model is not available")
(error "line 6181 column 51: model is not available")
(error "line 6182 column 52: model is not available")
(error "line 6183 column 52: model is not available")
(error "line 6184 column 54: model is not available")
(error "line 6185 column 54: model is not available")
(error "line 6186 column 54: model is not available")
(error "line 6187 column 54: model is not available")
(error "line 6188 column 52: model is not available")
(error "line 6189 column 52: model is not available")
(error "line 6190 column 53: model is not available")
(error "line 6191 column 53: model is not available")
(error "line 6192 column 53: model is not available")
(error "line 6193 column 53: model is not available")
(error "line 6194 column 53: model is not available")
(error "line 6195 column 53: model is not available")
(error "line 6196 column 53: model is not available")
(error "line 6197 column 53: model is not available")
(error "line 6198 column 52: model is not available")
(error "line 6199 column 52: model is not available")
(error "line 6200 column 52: model is not available")
(error "line 6201 column 54: model is not available")
(error "line 6202 column 54: model is not available")
(error "line 6203 column 54: model is not available")
(error "line 6204 column 54: model is not available")
(error "line 6205 column 52: model is not available")
(error "line 6206 column 52: model is not available")
(error "line 6207 column 53: model is not available")
(error "line 6208 column 53: model is not available")
(error "line 6209 column 53: model is not available")
(error "line 6210 column 53: model is not available")
(error "line 6211 column 53: model is not available")
(error "line 6212 column 53: model is not available")
(error "line 6213 column 53: model is not available")
(error "line 6214 column 53: model is not available")
(error "line 6215 column 52: model is not available")
(error "line 6216 column 52: model is not available")
(error "line 6217 column 52: model is not available")
(error "line 6218 column 54: model is not available")
(error "line 6219 column 54: model is not available")
(error "line 6220 column 54: model is not available")
(error "line 6221 column 54: model is not available")
(error "line 6222 column 52: model is not available")
(error "line 6223 column 52: model is not available")
(error "line 6224 column 53: model is not available")
(error "line 6225 column 53: model is not available")
(error "line 6226 column 53: model is not available")
(error "line 6227 column 53: model is not available")
(error "line 6228 column 53: model is not available")
(error "line 6229 column 53: model is not available")
(error "line 6230 column 53: model is not available")
(error "line 6231 column 53: model is not available")
(error "line 6232 column 52: model is not available")
(error "line 6233 column 52: model is not available")
(error "line 6234 column 52: model is not available")
(error "line 6235 column 54: model is not available")
(error "line 6236 column 54: model is not available")
(error "line 6237 column 54: model is not available")
(error "line 6238 column 54: model is not available")
(error "line 6239 column 52: model is not available")
(error "line 6240 column 52: model is not available")
(error "line 6241 column 53: model is not available")
(error "line 6242 column 53: model is not available")
(error "line 6243 column 53: model is not available")
(error "line 6244 column 53: model is not available")
(error "line 6245 column 53: model is not available")
(error "line 6246 column 53: model is not available")
(error "line 6247 column 53: model is not available")
(error "line 6248 column 53: model is not available")
(error "line 6249 column 52: model is not available")
(error "line 6250 column 52: model is not available")
(error "line 6251 column 52: model is not available")
(error "line 6252 column 54: model is not available")
(error "line 6253 column 54: model is not available")
(error "line 6254 column 54: model is not available")
(error "line 6255 column 54: model is not available")
(error "line 6256 column 52: model is not available")
(error "line 6257 column 52: model is not available")
(error "line 6258 column 52: model is not available")
(error "line 6259 column 53: model is not available")
(error "line 6260 column 53: model is not available")
(error "line 6261 column 54: model is not available")
(error "line 6262 column 54: model is not available")
(error "line 6263 column 54: model is not available")
(error "line 6264 column 54: model is not available")
(error "line 6265 column 54: model is not available")
(error "line 6266 column 54: model is not available")
(error "line 6267 column 54: model is not available")
(error "line 6268 column 54: model is not available")
(error "line 6269 column 54: model is not available")
(error "line 6270 column 54: model is not available")
(error "line 6271 column 54: model is not available")
(error "line 6272 column 54: model is not available")
(error "line 6273 column 54: model is not available")
(error "line 6274 column 54: model is not available")
(error "line 6275 column 54: model is not available")
(error "line 6276 column 54: model is not available")
(error "line 6277 column 54: model is not available")
(error "line 6278 column 54: model is not available")
(error "line 6279 column 54: model is not available")
(error "line 6280 column 54: model is not available")
(error "line 6281 column 54: model is not available")
(error "line 6282 column 54: model is not available")
(error "line 6283 column 54: model is not available")
(error "line 6284 column 54: model is not available")
(error "line 6285 column 54: model is not available")
(error "line 6286 column 54: model is not available")
(error "line 6287 column 54: model is not available")
(error "line 6288 column 54: model is not available")
(error "line 6289 column 54: model is not available")
(error "line 6290 column 54: model is not available")
(error "line 6291 column 54: model is not available")
(error "line 6292 column 54: model is not available")
(error "line 6293 column 52: model is not available")
(error "line 6294 column 52: model is not available")
(error "line 6295 column 52: model is not available")
(error "line 6296 column 52: model is not available")
(error "line 6297 column 52: model is not available")
(error "line 6298 column 52: model is not available")
(error "line 6299 column 52: model is not available")
(error "line 6300 column 52: model is not available")
(error "line 6301 column 52: model is not available")
(error "line 6302 column 52: model is not available")
(error "line 6303 column 52: model is not available")
(error "line 6304 column 52: model is not available")
(error "line 6305 column 52: model is not available")
(error "line 6306 column 54: model is not available")
(error "line 6307 column 54: model is not available")
(error "line 6308 column 54: model is not available")
(error "line 6309 column 54: model is not available")
(error "line 6310 column 54: model is not available")
(error "line 6311 column 54: model is not available")
(error "line 6312 column 54: model is not available")
(error "line 6313 column 54: model is not available")
(error "line 6314 column 54: model is not available")
(error "line 6315 column 54: model is not available")
(error "line 6316 column 54: model is not available")
(error "line 6317 column 54: model is not available")
(error "line 6318 column 54: model is not available")
(error "line 6319 column 54: model is not available")
(error "line 6320 column 54: model is not available")
(error "line 6321 column 54: model is not available")
(error "line 6322 column 54: model is not available")
(error "line 6323 column 52: model is not available")
(error "line 6324 column 52: model is not available")
(error "line 6325 column 52: model is not available")
(error "line 6326 column 53: model is not available")
(error "line 6327 column 53: model is not available")
(error "line 6328 column 51: model is not available")
(error "line 6329 column 53: model is not available")
(error "line 6330 column 53: model is not available")
(error "line 6331 column 52: model is not available")
(error "line 6332 column 52: model is not available")
(error "line 6333 column 52: model is not available")
(error "line 6334 column 52: model is not available")
(error "line 6335 column 52: model is not available")
(error "line 6336 column 52: model is not available")
(error "line 6337 column 52: model is not available")
(error "line 6338 column 52: model is not available")
(error "line 6339 column 52: model is not available")
(error "line 6340 column 52: model is not available")
(error "line 6341 column 52: model is not available")
(error "line 6342 column 52: model is not available")
(error "line 6343 column 52: model is not available")
(error "line 6344 column 53: model is not available")
(error "line 6345 column 53: model is not available")
(error "line 6346 column 53: model is not available")
(error "line 6347 column 53: model is not available")
(error "line 6348 column 58: model is not available")
(error "line 6349 column 58: model is not available")
(error "line 6350 column 58: model is not available")
(error "line 6351 column 58: model is not available")
(error "line 6352 column 57: model is not available")
(error "line 6353 column 56: model is not available")
(error "line 6354 column 57: model is not available")
(error "line 6355 column 57: model is not available")
(error "line 6356 column 57: model is not available")
(error "line 6357 column 57: model is not available")
(error "line 6358 column 57: model is not available")
(error "line 6359 column 57: model is not available")
(error "line 6360 column 57: model is not available")
(error "line 6361 column 57: model is not available")
(error "line 6362 column 56: model is not available")
(error "line 6363 column 56: model is not available")
(error "line 6364 column 56: model is not available")
(error "line 6365 column 46: model is not available")
(error "line 6366 column 46: model is not available")
(error "line 6367 column 54: model is not available")
(error "line 6368 column 54: model is not available")
(error "line 6369 column 54: model is not available")
(error "line 6370 column 40: model is not available")
(error "line 6371 column 40: model is not available")
(error "line 6372 column 41: model is not available")
(error "line 6373 column 41: model is not available")
(error "line 6374 column 50: model is not available")
(error "line 6375 column 50: model is not available")
(error "line 6376 column 43: model is not available")
(error "line 6377 column 43: model is not available")
(error "line 6378 column 26: model is not available")
(error "line 6379 column 30: model is not available")
(error "line 6380 column 36: model is not available")
(error "line 6381 column 36: model is not available")
(error "line 6382 column 30: model is not available")
(error "line 6383 column 36: model is not available")
(error "line 6384 column 36: model is not available")
(error "line 6385 column 30: model is not available")
(error "line 6386 column 21: model is not available")
(error "line 6387 column 28: model is not available")
(error "line 6388 column 22: model is not available")
(error "line 6389 column 29: model is not available")
(error "line 6390 column 22: model is not available")
(error "line 6391 column 29: model is not available")
(error "line 6392 column 22: model is not available")
(error "line 6393 column 29: model is not available")
(error "line 6394 column 22: model is not available")
(error "line 6395 column 29: model is not available")
(error "line 6396 column 22: model is not available")
(error "line 6397 column 29: model is not available")
(error "line 6398 column 22: model is not available")
(error "line 6399 column 29: model is not available")
(error "line 6400 column 22: model is not available")
(error "line 6401 column 29: model is not available")
(error "line 6402 column 22: model is not available")
(error "line 6403 column 29: model is not available")
(error "line 6404 column 22: model is not available")
(error "line 6405 column 29: model is not available")
(error "line 6406 column 22: model is not available")
(error "line 6407 column 29: model is not available")
(error "line 6408 column 21: model is not available")
(error "line 6409 column 28: model is not available")
(error "line 6410 column 22: model is not available")
(error "line 6411 column 29: model is not available")
(error "line 6412 column 22: model is not available")
(error "line 6413 column 29: model is not available")
(error "line 6414 column 22: model is not available")
(error "line 6415 column 29: model is not available")
(error "line 6416 column 22: model is not available")
(error "line 6417 column 29: model is not available")
(error "line 6418 column 21: model is not available")
(error "line 6419 column 28: model is not available")
(error "line 6420 column 21: model is not available")
(error "line 6421 column 28: model is not available")
(error "line 6422 column 21: model is not available")
(error "line 6423 column 28: model is not available")
(error "line 6424 column 21: model is not available")
(error "line 6425 column 28: model is not available")
(error "line 6426 column 21: model is not available")
(error "line 6427 column 28: model is not available")
(error "line 6428 column 21: model is not available")
(error "line 6429 column 28: model is not available")
(error "line 6430 column 21: model is not available")
(error "line 6431 column 28: model is not available")
(error "line 6432 column 18: model is not available")
(error "line 6433 column 25: model is not available")
(error "line 6434 column 18: model is not available")
(error "line 6435 column 25: model is not available")
(error "line 6436 column 18: model is not available")
(error "line 6437 column 25: model is not available")
(error "line 6438 column 18: model is not available")
(error "line 6439 column 25: model is not available")
(error "line 6440 column 18: model is not available")
(error "line 6441 column 25: model is not available")
(error "line 6443 column 10: model is not available")
(:added-eqs                      191
 :arith-bound-propagations-cheap 325
 :arith-bound-propagations-lp    853
 :arith-conflicts                2
 :arith-lower                    277
 :arith-make-feasible            175
 :arith-max-columns              384
 :arith-max-rows                 309
 :arith-propagations             325
 :arith-upper                    321
 :binary-propagations            1743
 :bv-bit2core                    1710
 :bv-dynamic-diseqs              2
 :bv->core-eq                    2
 :conflicts                      28
 :decisions                      542
 :del-clause                     130
 :eliminated-applications        17
 :eliminated-vars                32
 :max-memory                     8.03
 :memory                         4.34
 :minimized-lits                 13
 :mk-bool-var                    1884
 :mk-clause                      1612
 :num-allocs                     17428090
 :num-checks                     1
 :propagations                   2462
 :rlimit-count                   2905421
 :time                           0.19
 :total-time                     0.21)

real	0m0.219s
user	0m0.212s
sys	0m0.007s
State: RE Run_time: 0.22100400924682617